
  19    0


   0   9 2 3 4 5 6 7 16 17 18 
   7   6 15 14 13 11 10 8 
  10   2 11 10 
   1   2 12 8 
   4   1 9 
   4   1 9 
   4   1 8 
   1   1 19
  10   1 19
   9   1 19
   8   1 19
   5   1 19
   2   1 19
   8   1 19
   4   1 19
   7   1 19
   5   1 19
   6   1 19
   0   0 
